File : Instances/p67
Used 69s
28240

0 0 0 0 1 0 1 1 0 0 1 0 1 1 1 1 0 0 0 0 0 1 0 1 1 0 0 0 1 0 
7 6 21 24 21 12 15 28 24 28 4 28 13 13 28 7 13 10 24 24 7 24 23 24 10 7 24 14 4 15 6 6 4 21 28 6 10 13 24 15 7 14 6 4 13 4 13 21 14 14 24 24 21 21 13 6 7 14 7 7 4 23 7 13 13 12 23 14 28 12 7 12 6 14 23 23 10 23 10 24 10 10 14 7 4 13 6 23 24 7 28 6 7 12 23 13 28 6 23 28 28 15 12 7 4 24 4 24 21 13 14 4 28 12 12 13 28 7 14 13 10 12 28 6 4 21 21 12 4 28 28 21 12 10 23 14 13 13 28 10 12 24 12 12 7 23 24 15 24 7 24 14 23 10 13 28 21 15 13 13 13 24 10 21 23 28 23 4 13 21 23 10 14 14 4 21 24 10 4 10 23 21 21 6 12 13 28 23 28 21 21 21 6 4 7 12 7 15 10 6 
